NAME 
OBJSENSE MAX
ROWS
 N  OBJ
 L  packing[0]
 L  packing[1]
 L  packing[2]
 L  packing[3]
 L  packing[4]
 L  packing[5]
 L  packing[6]
 L  packing[7]
 L  packing[8]
 L  packing[9]
 L  packing[10]
 L  packing[11]
 L  packing[12]
 L  packing[13]
 L  packing[14]
 L  packing[15]
 L  packing[16]
 L  packing[17]
 L  packing[18]
 L  packing[19]
 L  packing[20]
 L  packing[21]
 L  packing[22]
 L  packing[23]
 L  packing[24]
 L  packing[25]
 L  packing[26]
 L  packing[27]
 L  packing[28]
 L  packing[29]
 L  packing[30]
 L  packing[31]
 L  packing[32]
 L  packing[33]
 L  packing[34]
 L  packing[35]
 L  packing[36]
 L  packing[37]
 L  packing[38]
 L  packing[39]
 L  packing[40]
 L  packing[41]
 L  packing[42]
 L  packing[43]
 L  packing[44]
 L  packing[45]
 L  packing[46]
 L  packing[47]
 L  packing[48]
 L  packing[49]
 L  R60     
COLUMNS
    MARKER    'MARKER'                 'INTORG'
    x[1]      OBJ       74
    x[1]      packing[0]  153
    x[1]      packing[1]  114
    x[1]      packing[2]  30
    x[1]      packing[4]  142
    x[1]      packing[5]  18
    x[1]      packing[6]  25
    x[1]      packing[8]  87
    x[1]      packing[10]  98
    x[1]      packing[11]  148
    x[1]      packing[13]  38
    x[1]      packing[14]  111
    x[1]      packing[15]  116
    x[1]      packing[17]  96
    x[1]      packing[18]  165
    x[1]      packing[19]  50
    x[1]      packing[20]  44
    x[1]      packing[21]  131
    x[1]      packing[22]  71
    x[1]      packing[24]  138
    x[1]      packing[25]  29
    x[1]      packing[26]  147
    x[1]      packing[27]  41
    x[1]      packing[28]  2
    x[1]      packing[29]  172
    x[1]      packing[31]  190
    x[1]      packing[32]  156
    x[1]      packing[33]  61
    x[1]      packing[34]  44
    x[1]      packing[35]  40
    x[1]      packing[37]  40
    x[1]      packing[39]  34
    x[1]      packing[40]  86
    x[1]      packing[42]  187
    x[1]      packing[43]  103
    x[1]      packing[44]  17
    x[1]      packing[46]  91
    x[1]      packing[47]  87
    x[1]      packing[49]  110
    x[2]      OBJ       38
    x[2]      packing[0]  131
    x[2]      packing[2]  12
    x[2]      packing[3]  187
    x[2]      packing[4]  67
    x[2]      packing[5]  143
    x[2]      packing[6]  99
    x[2]      packing[7]  89
    x[2]      packing[8]  30
    x[2]      packing[9]  116
    x[2]      packing[10]  177
    x[2]      packing[11]  149
    x[2]      packing[13]  95
    x[2]      packing[15]  80
    x[2]      packing[16]  96
    x[2]      packing[17]  78
    x[2]      packing[18]  65
    x[2]      packing[19]  116
    x[2]      packing[20]  125
    x[2]      packing[21]  126
    x[2]      packing[22]  112
    x[2]      packing[23]  1
    x[2]      packing[25]  2
    x[2]      packing[27]  108
    x[2]      packing[28]  164
    x[2]      packing[29]  106
    x[2]      packing[30]  172
    x[2]      packing[31]  6
    x[2]      packing[33]  170
    x[2]      packing[36]  130
    x[2]      packing[37]  3
    x[2]      packing[39]  132
    x[2]      packing[40]  139
    x[2]      packing[41]  53
    x[2]      packing[42]  77
    x[2]      packing[43]  119
    x[2]      packing[45]  82
    x[2]      packing[47]  79
    x[3]      OBJ       14
    x[3]      packing[0]  139
    x[3]      packing[1]  137
    x[3]      packing[3]  85
    x[3]      packing[4]  165
    x[3]      packing[5]  16
    x[3]      packing[6]  14
    x[3]      packing[8]  19
    x[3]      packing[9]  185
    x[3]      packing[10]  54
    x[3]      packing[12]  127
    x[3]      packing[13]  57
    x[3]      packing[14]  2
    x[3]      packing[15]  29
    x[3]      packing[16]  105
    x[3]      packing[17]  99
    x[3]      packing[18]  185
    x[3]      packing[19]  64
    x[3]      packing[20]  171
    x[3]      packing[21]  115
    x[3]      packing[23]  194
    x[3]      packing[25]  112
    x[3]      packing[26]  146
    x[3]      packing[27]  178
    x[3]      packing[28]  152
    x[3]      packing[29]  81
    x[3]      packing[32]  70
    x[3]      packing[33]  130
    x[3]      packing[34]  181
    x[3]      packing[35]  169
    x[3]      packing[36]  81
    x[3]      packing[37]  10
    x[3]      packing[38]  70
    x[3]      packing[39]  142
    x[3]      packing[40]  49
    x[3]      packing[41]  176
    x[3]      packing[42]  51
    x[3]      packing[43]  191
    x[3]      packing[46]  152
    x[3]      packing[47]  130
    x[3]      packing[49]  141
    x[4]      OBJ       7
    x[4]      packing[0]  125
    x[4]      packing[2]  68
    x[4]      packing[3]  162
    x[4]      packing[5]  21
    x[4]      packing[6]  32
    x[4]      packing[9]  194
    x[4]      packing[10]  37
    x[4]      packing[12]  164
    x[4]      packing[13]  60
    x[4]      packing[14]  64
    x[4]      packing[15]  164
    x[4]      packing[16]  131
    x[4]      packing[17]  178
    x[4]      packing[18]  50
    x[4]      packing[19]  52
    x[4]      packing[21]  167
    x[4]      packing[22]  17
    x[4]      packing[23]  94
    x[4]      packing[24]  31
    x[4]      packing[25]  181
    x[4]      packing[26]  25
    x[4]      packing[28]  15
    x[4]      packing[30]  159
    x[4]      packing[32]  18
    x[4]      packing[33]  181
    x[4]      packing[36]  25
    x[4]      packing[37]  48
    x[4]      packing[38]  155
    x[4]      packing[40]  35
    x[4]      packing[41]  96
    x[4]      packing[42]  111
    x[4]      packing[43]  49
    x[4]      packing[44]  69
    x[4]      packing[45]  109
    x[4]      packing[46]  168
    x[4]      packing[47]  2
    x[4]      packing[48]  53
    x[4]      packing[49]  73
    x[5]      OBJ       192
    x[5]      packing[1]  101
    x[5]      packing[3]  132
    x[5]      packing[4]  23
    x[5]      packing[5]  132
    x[5]      packing[6]  181
    x[5]      packing[8]  151
    x[5]      packing[9]  130
    x[5]      packing[10]  51
    x[5]      packing[11]  167
    x[5]      packing[13]  143
    x[5]      packing[14]  135
    x[5]      packing[16]  61
    x[5]      packing[17]  150
    x[5]      packing[18]  150
    x[5]      packing[19]  182
    x[5]      packing[21]  155
    x[5]      packing[22]  178
    x[5]      packing[24]  79
    x[5]      packing[25]  162
    x[5]      packing[26]  55
    x[5]      packing[27]  44
    x[5]      packing[28]  106
    x[5]      packing[30]  31
    x[5]      packing[31]  131
    x[5]      packing[32]  34
    x[5]      packing[33]  39
    x[5]      packing[34]  47
    x[5]      packing[38]  177
    x[5]      packing[39]  96
    x[5]      packing[42]  67
    x[5]      packing[43]  132
    x[5]      packing[45]  49
    x[5]      packing[48]  39
    x[5]      packing[49]  167
    x[5]      R60       1
    x[6]      OBJ       189
    x[6]      packing[0]  20
    x[6]      packing[3]  19
    x[6]      packing[4]  168
    x[6]      packing[5]  59
    x[6]      packing[6]  22
    x[6]      packing[7]  47
    x[6]      packing[8]  129
    x[6]      packing[11]  128
    x[6]      packing[12]  65
    x[6]      packing[13]  20
    x[6]      packing[14]  69
    x[6]      packing[15]  182
    x[6]      packing[16]  93
    x[6]      packing[17]  67
    x[6]      packing[18]  113
    x[6]      packing[19]  133
    x[6]      packing[20]  86
    x[6]      packing[21]  74
    x[6]      packing[23]  31
    x[6]      packing[26]  91
    x[6]      packing[27]  154
    x[6]      packing[29]  61
    x[6]      packing[30]  61
    x[6]      packing[31]  112
    x[6]      packing[32]  37
    x[6]      packing[33]  79
    x[6]      packing[34]  62
    x[6]      packing[35]  27
    x[6]      packing[36]  175
    x[6]      packing[37]  68
    x[6]      packing[38]  195
    x[6]      packing[39]  74
    x[6]      packing[41]  94
    x[6]      packing[44]  85
    x[6]      packing[47]  139
    x[6]      packing[48]  118
    x[6]      packing[49]  115
    x[6]      R60       1
    x[7]      OBJ       37
    x[7]      packing[1]  86
    x[7]      packing[4]  189
    x[7]      packing[6]  68
    x[7]      packing[7]  132
    x[7]      packing[8]  102
    x[7]      packing[9]  112
    x[7]      packing[13]  16
    x[7]      packing[14]  102
    x[7]      packing[15]  107
    x[7]      packing[16]  171
    x[7]      packing[17]  72
    x[7]      packing[18]  5
    x[7]      packing[20]  122
    x[7]      packing[21]  23
    x[7]      packing[22]  102
    x[7]      packing[23]  163
    x[7]      packing[25]  14
    x[7]      packing[27]  134
    x[7]      packing[28]  166
    x[7]      packing[29]  155
    x[7]      packing[31]  168
    x[7]      packing[32]  195
    x[7]      packing[33]  165
    x[7]      packing[34]  85
    x[7]      packing[36]  35
    x[7]      packing[38]  3
    x[7]      packing[40]  6
    x[7]      packing[41]  180
    x[7]      packing[42]  64
    x[7]      packing[43]  82
    x[7]      packing[44]  63
    x[7]      packing[45]  179
    x[7]      packing[48]  123
    x[8]      OBJ       70
    x[8]      packing[0]  136
    x[8]      packing[1]  178
    x[8]      packing[3]  179
    x[8]      packing[4]  40
    x[8]      packing[5]  105
    x[8]      packing[6]  91
    x[8]      packing[7]  116
    x[8]      packing[8]  182
    x[8]      packing[9]  145
    x[8]      packing[12]  156
    x[8]      packing[13]  1
    x[8]      packing[17]  191
    x[8]      packing[18]  11
    x[8]      packing[19]  92
    x[8]      packing[21]  127
    x[8]      packing[22]  71
    x[8]      packing[23]  21
    x[8]      packing[24]  162
    x[8]      packing[25]  198
    x[8]      packing[26]  57
    x[8]      packing[27]  182
    x[8]      packing[28]  129
    x[8]      packing[29]  49
    x[8]      packing[30]  157
    x[8]      packing[31]  148
    x[8]      packing[33]  117
    x[8]      packing[35]  49
    x[8]      packing[38]  130
    x[8]      packing[39]  173
    x[8]      packing[40]  125
    x[8]      packing[41]  162
    x[8]      packing[42]  141
    x[8]      packing[43]  37
    x[8]      packing[46]  42
    x[8]      packing[47]  75
    x[8]      packing[48]  86
    x[8]      packing[49]  132
    x[9]      OBJ       106
    x[9]      packing[0]  195
    x[9]      packing[1]  84
    x[9]      packing[2]  103
    x[9]      packing[3]  181
    x[9]      packing[4]  11
    x[9]      packing[5]  170
    x[9]      packing[6]  146
    x[9]      packing[7]  186
    x[9]      packing[8]  175
    x[9]      packing[9]  139
    x[9]      packing[10]  34
    x[9]      packing[11]  3
    x[9]      packing[13]  46
    x[9]      packing[14]  109
    x[9]      packing[16]  86
    x[9]      packing[17]  147
    x[9]      packing[18]  129
    x[9]      packing[19]  9
    x[9]      packing[20]  58
    x[9]      packing[21]  57
    x[9]      packing[22]  37
    x[9]      packing[23]  152
    x[9]      packing[24]  150
    x[9]      packing[25]  93
    x[9]      packing[27]  88
    x[9]      packing[29]  42
    x[9]      packing[31]  9
    x[9]      packing[32]  120
    x[9]      packing[33]  68
    x[9]      packing[34]  27
    x[9]      packing[35]  154
    x[9]      packing[37]  63
    x[9]      packing[39]  154
    x[9]      packing[40]  191
    x[9]      packing[41]  84
    x[9]      packing[42]  92
    x[9]      packing[43]  37
    x[9]      packing[45]  73
    x[9]      packing[46]  123
    x[9]      packing[48]  153
    x[9]      packing[49]  71
    x[9]      R60       1
    x[10]     OBJ       182
    x[10]     packing[0]  192
    x[10]     packing[1]  55
    x[10]     packing[2]  109
    x[10]     packing[4]  30
    x[10]     packing[6]  91
    x[10]     packing[7]  157
    x[10]     packing[8]  194
    x[10]     packing[11]  111
    x[10]     packing[12]  188
    x[10]     packing[13]  4
    x[10]     packing[15]  159
    x[10]     packing[16]  118
    x[10]     packing[17]  195
    x[10]     packing[18]  90
    x[10]     packing[21]  183
    x[10]     packing[22]  15
    x[10]     packing[23]  117
    x[10]     packing[24]  156
    x[10]     packing[25]  63
    x[10]     packing[26]  143
    x[10]     packing[27]  160
    x[10]     packing[29]  195
    x[10]     packing[31]  161
    x[10]     packing[32]  32
    x[10]     packing[33]  197
    x[10]     packing[34]  171
    x[10]     packing[35]  129
    x[10]     packing[36]  47
    x[10]     packing[37]  124
    x[10]     packing[38]  186
    x[10]     packing[39]  110
    x[10]     packing[40]  59
    x[10]     packing[41]  168
    x[10]     packing[42]  147
    x[10]     packing[43]  10
    x[10]     packing[44]  133
    x[10]     packing[46]  198
    x[10]     packing[48]  89
    x[10]     packing[49]  57
    x[10]     R60       1
    x[11]     OBJ       173
    x[11]     packing[0]  16
    x[11]     packing[1]  11
    x[11]     packing[2]  67
    x[11]     packing[3]  186
    x[11]     packing[4]  65
    x[11]     packing[5]  22
    x[11]     packing[6]  45
    x[11]     packing[7]  198
    x[11]     packing[8]  81
    x[11]     packing[11]  50
    x[11]     packing[12]  174
    x[11]     packing[14]  176
    x[11]     packing[15]  12
    x[11]     packing[18]  144
    x[11]     packing[19]  96
    x[11]     packing[20]  95
    x[11]     packing[22]  91
    x[11]     packing[23]  96
    x[11]     packing[24]  101
    x[11]     packing[27]  198
    x[11]     packing[29]  145
    x[11]     packing[30]  37
    x[11]     packing[33]  75
    x[11]     packing[34]  153
    x[11]     packing[35]  8
    x[11]     packing[38]  5
    x[11]     packing[39]  1
    x[11]     packing[40]  56
    x[11]     packing[41]  137
    x[11]     packing[42]  10
    x[11]     packing[43]  137
    x[11]     packing[44]  59
    x[11]     packing[47]  66
    x[11]     packing[48]  65
    x[11]     packing[49]  68
    x[11]     R60       1
    x[12]     OBJ       186
    x[12]     packing[1]  32
    x[12]     packing[2]  35
    x[12]     packing[3]  106
    x[12]     packing[6]  85
    x[12]     packing[7]  153
    x[12]     packing[8]  123
    x[12]     packing[9]  71
    x[12]     packing[10]  47
    x[12]     packing[11]  139
    x[12]     packing[13]  123
    x[12]     packing[14]  46
    x[12]     packing[15]  66
    x[12]     packing[16]  116
    x[12]     packing[17]  176
    x[12]     packing[18]  98
    x[12]     packing[19]  146
    x[12]     packing[20]  22
    x[12]     packing[21]  80
    x[12]     packing[22]  142
    x[12]     packing[23]  88
    x[12]     packing[26]  155
    x[12]     packing[27]  40
    x[12]     packing[28]  184
    x[12]     packing[32]  20
    x[12]     packing[34]  134
    x[12]     packing[35]  73
    x[12]     packing[37]  107
    x[12]     packing[38]  196
    x[12]     packing[39]  11
    x[12]     packing[40]  143
    x[12]     packing[41]  19
    x[12]     packing[42]  143
    x[12]     packing[43]  190
    x[12]     packing[44]  10
    x[12]     packing[46]  156
    x[12]     packing[47]  45
    x[12]     packing[48]  51
    x[12]     packing[49]  18
    x[12]     R60       1
    x[13]     OBJ       37
    x[13]     packing[0]  196
    x[13]     packing[3]  110
    x[13]     packing[4]  47
    x[13]     packing[5]  99
    x[13]     packing[6]  33
    x[13]     packing[8]  20
    x[13]     packing[9]  187
    x[13]     packing[11]  106
    x[13]     packing[12]  57
    x[13]     packing[13]  164
    x[13]     packing[14]  68
    x[13]     packing[15]  81
    x[13]     packing[16]  61
    x[13]     packing[17]  70
    x[13]     packing[18]  145
    x[13]     packing[19]  69
    x[13]     packing[20]  175
    x[13]     packing[21]  117
    x[13]     packing[22]  123
    x[13]     packing[24]  128
    x[13]     packing[25]  5
    x[13]     packing[27]  87
    x[13]     packing[31]  40
    x[13]     packing[32]  131
    x[13]     packing[33]  108
    x[13]     packing[34]  21
    x[13]     packing[35]  54
    x[13]     packing[36]  115
    x[13]     packing[37]  70
    x[13]     packing[38]  77
    x[13]     packing[39]  117
    x[13]     packing[40]  29
    x[13]     packing[42]  34
    x[13]     packing[43]  128
    x[13]     packing[44]  111
    x[13]     packing[45]  109
    x[13]     packing[46]  158
    x[13]     packing[47]  94
    x[13]     packing[48]  99
    x[13]     packing[49]  195
    x[14]     OBJ       123
    x[14]     packing[0]  30
    x[14]     packing[2]  153
    x[14]     packing[5]  55
    x[14]     packing[6]  43
    x[14]     packing[7]  178
    x[14]     packing[8]  180
    x[14]     packing[11]  170
    x[14]     packing[12]  121
    x[14]     packing[13]  77
    x[14]     packing[14]  14
    x[14]     packing[15]  186
    x[14]     packing[16]  51
    x[14]     packing[17]  1
    x[14]     packing[18]  163
    x[14]     packing[19]  76
    x[14]     packing[20]  130
    x[14]     packing[22]  139
    x[14]     packing[23]  46
    x[14]     packing[24]  160
    x[14]     packing[25]  106
    x[14]     packing[26]  60
    x[14]     packing[27]  47
    x[14]     packing[28]  105
    x[14]     packing[29]  187
    x[14]     packing[30]  183
    x[14]     packing[31]  17
    x[14]     packing[34]  67
    x[14]     packing[35]  128
    x[14]     packing[36]  116
    x[14]     packing[37]  102
    x[14]     packing[38]  9
    x[14]     packing[39]  46
    x[14]     packing[40]  104
    x[14]     packing[41]  143
    x[14]     packing[42]  186
    x[14]     packing[43]  3
    x[14]     packing[44]  29
    x[14]     packing[46]  4
    x[14]     packing[47]  56
    x[14]     packing[48]  80
    x[14]     packing[49]  160
    x[15]     OBJ       1
    x[15]     packing[2]  74
    x[15]     packing[3]  13
    x[15]     packing[4]  132
    x[15]     packing[7]  180
    x[15]     packing[8]  91
    x[15]     packing[10]  71
    x[15]     packing[11]  97
    x[15]     packing[12]  167
    x[15]     packing[13]  29
    x[15]     packing[15]  156
    x[15]     packing[16]  51
    x[15]     packing[19]  83
    x[15]     packing[20]  74
    x[15]     packing[22]  93
    x[15]     packing[23]  82
    x[15]     packing[24]  126
    x[15]     packing[25]  179
    x[15]     packing[27]  168
    x[15]     packing[28]  156
    x[15]     packing[29]  153
    x[15]     packing[31]  140
    x[15]     packing[32]  199
    x[15]     packing[34]  168
    x[15]     packing[35]  130
    x[15]     packing[36]  132
    x[15]     packing[37]  122
    x[15]     packing[38]  167
    x[15]     packing[39]  183
    x[15]     packing[40]  15
    x[15]     packing[41]  76
    x[15]     packing[42]  142
    x[15]     packing[43]  161
    x[15]     packing[44]  40
    x[15]     packing[45]  10
    x[15]     packing[46]  128
    x[15]     packing[47]  156
    x[15]     packing[48]  56
    x[15]     packing[49]  150
    x[16]     OBJ       48
    x[16]     packing[0]  150
    x[16]     packing[1]  8
    x[16]     packing[2]  139
    x[16]     packing[3]  146
    x[16]     packing[4]  97
    x[16]     packing[5]  33
    x[16]     packing[8]  32
    x[16]     packing[11]  11
    x[16]     packing[14]  127
    x[16]     packing[15]  193
    x[16]     packing[16]  34
    x[16]     packing[18]  86
    x[16]     packing[19]  142
    x[16]     packing[20]  7
    x[16]     packing[22]  143
    x[16]     packing[23]  186
    x[16]     packing[24]  49
    x[16]     packing[25]  36
    x[16]     packing[26]  68
    x[16]     packing[27]  156
    x[16]     packing[28]  152
    x[16]     packing[30]  5
    x[16]     packing[31]  185
    x[16]     packing[33]  112
    x[16]     packing[34]  182
    x[16]     packing[35]  18
    x[16]     packing[36]  19
    x[16]     packing[38]  139
    x[16]     packing[39]  181
    x[16]     packing[40]  183
    x[16]     packing[41]  31
    x[16]     packing[42]  3
    x[16]     packing[43]  197
    x[16]     packing[44]  90
    x[16]     packing[46]  23
    x[16]     packing[47]  47
    x[16]     packing[49]  85
    x[17]     OBJ       173
    x[17]     packing[0]  90
    x[17]     packing[1]  78
    x[17]     packing[2]  47
    x[17]     packing[4]  9
    x[17]     packing[5]  35
    x[17]     packing[6]  39
    x[17]     packing[8]  62
    x[17]     packing[10]  125
    x[17]     packing[11]  20
    x[17]     packing[13]  87
    x[17]     packing[19]  132
    x[17]     packing[20]  156
    x[17]     packing[21]  28
    x[17]     packing[25]  54
    x[17]     packing[26]  108
    x[17]     packing[28]  12
    x[17]     packing[29]  11
    x[17]     packing[30]  25
    x[17]     packing[31]  116
    x[17]     packing[32]  150
    x[17]     packing[33]  183
    x[17]     packing[34]  21
    x[17]     packing[35]  135
    x[17]     packing[36]  77
    x[17]     packing[37]  131
    x[17]     packing[38]  91
    x[17]     packing[39]  58
    x[17]     packing[40]  138
    x[17]     packing[41]  106
    x[17]     packing[42]  56
    x[17]     packing[44]  156
    x[17]     packing[45]  24
    x[17]     packing[48]  187
    x[17]     R60       1
    x[18]     OBJ       113
    x[18]     packing[1]  70
    x[18]     packing[2]  82
    x[18]     packing[6]  87
    x[18]     packing[8]  170
    x[18]     packing[10]  180
    x[18]     packing[11]  165
    x[18]     packing[13]  4
    x[18]     packing[15]  112
    x[18]     packing[16]  125
    x[18]     packing[17]  131
    x[18]     packing[18]  86
    x[18]     packing[19]  17
    x[18]     packing[20]  37
    x[18]     packing[21]  115
    x[18]     packing[22]  130
    x[18]     packing[23]  13
    x[18]     packing[24]  22
    x[18]     packing[25]  113
    x[18]     packing[26]  174
    x[18]     packing[27]  180
    x[18]     packing[28]  32
    x[18]     packing[31]  39
    x[18]     packing[33]  141
    x[18]     packing[34]  144
    x[18]     packing[35]  97
    x[18]     packing[36]  71
    x[18]     packing[37]  185
    x[18]     packing[38]  148
    x[18]     packing[39]  166
    x[18]     packing[40]  76
    x[18]     packing[41]  168
    x[18]     packing[43]  68
    x[18]     packing[45]  142
    x[18]     packing[46]  10
    x[18]     packing[47]  87
    x[18]     packing[48]  122
    x[18]     packing[49]  15
    x[19]     OBJ       94
    x[19]     packing[0]  152
    x[19]     packing[1]  92
    x[19]     packing[2]  139
    x[19]     packing[3]  177
    x[19]     packing[5]  189
    x[19]     packing[7]  21
    x[19]     packing[8]  193
    x[19]     packing[9]  176
    x[19]     packing[10]  124
    x[19]     packing[11]  99
    x[19]     packing[12]  109
    x[19]     packing[15]  35
    x[19]     packing[17]  103
    x[19]     packing[18]  7
    x[19]     packing[19]  80
    x[19]     packing[21]  83
    x[19]     packing[23]  85
    x[19]     packing[24]  48
    x[19]     packing[25]  84
    x[19]     packing[26]  61
    x[19]     packing[27]  186
    x[19]     packing[29]  137
    x[19]     packing[30]  53
    x[19]     packing[31]  198
    x[19]     packing[32]  174
    x[19]     packing[33]  150
    x[19]     packing[35]  109
    x[19]     packing[36]  180
    x[19]     packing[37]  30
    x[19]     packing[38]  68
    x[19]     packing[39]  136
    x[19]     packing[40]  85
    x[19]     packing[43]  91
    x[19]     packing[44]  73
    x[19]     packing[45]  196
    x[19]     packing[47]  43
    x[19]     packing[48]  2
    x[19]     packing[49]  21
    x[20]     OBJ       58
    x[20]     packing[1]  56
    x[20]     packing[2]  16
    x[20]     packing[5]  7
    x[20]     packing[6]  19
    x[20]     packing[7]  153
    x[20]     packing[9]  56
    x[20]     packing[10]  47
    x[20]     packing[12]  87
    x[20]     packing[13]  185
    x[20]     packing[14]  54
    x[20]     packing[15]  102
    x[20]     packing[16]  199
    x[20]     packing[17]  102
    x[20]     packing[19]  103
    x[20]     packing[20]  105
    x[20]     packing[21]  173
    x[20]     packing[22]  162
    x[20]     packing[24]  140
    x[20]     packing[25]  83
    x[20]     packing[26]  145
    x[20]     packing[27]  10
    x[20]     packing[28]  84
    x[20]     packing[29]  134
    x[20]     packing[30]  84
    x[20]     packing[31]  39
    x[20]     packing[33]  155
    x[20]     packing[35]  21
    x[20]     packing[36]  116
    x[20]     packing[37]  174
    x[20]     packing[38]  156
    x[20]     packing[39]  128
    x[20]     packing[40]  137
    x[20]     packing[43]  8
    x[20]     packing[44]  44
    x[20]     packing[45]  110
    x[20]     packing[46]  163
    x[20]     packing[47]  138
    x[20]     packing[48]  17
    x[20]     packing[49]  17
    MARKER    'MARKER'                 'INTEND'
RHS
    RHS1      packing[0]  863
    RHS1      packing[1]  551
    RHS1      packing[2]  537
    RHS1      packing[3]  842
    RHS1      packing[4]  593
    RHS1      packing[5]  552
    RHS1      packing[6]  560
    RHS1      packing[7]  805
    RHS1      packing[8]  1011
    RHS1      packing[9]  756
    RHS1      packing[10]  523
    RHS1      packing[11]  782
    RHS1      packing[12]  708
    RHS1      packing[13]  575
    RHS1      packing[14]  539
    RHS1      packing[15]  890
    RHS1      packing[16]  749
    RHS1      packing[17]  928
    RHS1      packing[18]  846
    RHS1      packing[19]  821
    RHS1      packing[20]  704
    RHS1      packing[21]  877
    RHS1      packing[22]  813
    RHS1      packing[23]  685
    RHS1      packing[24]  745
    RHS1      packing[25]  757
    RHS1      packing[26]  718
    RHS1      packing[27]  1081
    RHS1      packing[28]  730
    RHS1      packing[29]  814
    RHS1      packing[30]  484
    RHS1      packing[31]  850
    RHS1      packing[32]  668
    RHS1      packing[33]  1066
    RHS1      packing[34]  754
    RHS1      packing[35]  671
    RHS1      packing[36]  660
    RHS1      packing[37]  639
    RHS1      packing[38]  986
    RHS1      packing[39]  971
    RHS1      packing[40]  828
    RHS1      packing[41]  847
    RHS1      packing[42]  756
    RHS1      packing[43]  872
    RHS1      packing[44]  490
    RHS1      packing[45]  542
    RHS1      packing[46]  708
    RHS1      packing[47]  622
    RHS1      packing[48]  670
    RHS1      packing[49]  798
    RHS1      R60       6
BOUNDS
 BV BND1      x[1]    
 BV BND1      x[2]    
 BV BND1      x[3]    
 BV BND1      x[4]    
 BV BND1      x[5]    
 BV BND1      x[6]    
 BV BND1      x[7]    
 BV BND1      x[8]    
 BV BND1      x[9]    
 BV BND1      x[10]   
 BV BND1      x[11]   
 BV BND1      x[12]   
 BV BND1      x[13]   
 BV BND1      x[14]   
 BV BND1      x[15]   
 BV BND1      x[16]   
 BV BND1      x[17]   
 BV BND1      x[18]   
 BV BND1      x[19]   
 BV BND1      x[20]   
ENDATA
